c defined variables: 33 34 35 36 37 38 39 40 41 42 43 44 45 46 47 48 49 50 51 52 53 54 55 56 57 58 59 60 61 62 63 64 65 66 67 68 69 70 71 72 73 74 75 76 77 78 79 80 81 82 83 84 85 86 87 88 89 90 91 92 93 94 95 96 97 98 99 100 101 102 103 104 105 106 107 108 109 110 111 112 113 114 115 116 117 118 119 120 121 122 123 124 125 126 127 128 129 130 131 132 133 134 135 136 137 138 139 140 141 142 143 144 145 146 147 148 149 150 151 152 153 154 155 156 157 158 159 160 161 162 163 164 165 166 167 231 232 233 234 235 236 237 238 239 240 241 242 243 247 248 250 251 252 253 254 255 256 257 258 259 260 262 263 265 266 270 274 276 277 278 279 280 281 282 283 284 285 286 287 288 289 290 291 294 295 296 298 300 301 302 303 304 305 306 307 308 309 310 311 312 313 314 315 316 317 318 319 321 322 323 324 325 326 327 328 329 330 332 334 335 337 338 339 340 341 342 
p cnf 1445 2127
a 1 2 3 4 5 6 7 8 9 10 11 12 13 14 15 16 17 18 19 20 21 22 23 24 25 26 27 28 29 30 31 32 187 188 189 190 191 192 193 194 195 196 197 198 199 200 201 202 203 204 205 206 207 208 209 210 211 212 213 214 215 216 217 218 219 220 221 222 223 224 225 226 227 228 0
e 33 34 35 36 37 38 39 40 41 42 43 44 45 46 47 48 49 50 51 52 53 54 55 56 57 58 59 60 61 62 63 64 65 66 67 68 69 70 71 72 73 74 75 76 77 78 79 80 81 82 83 84 85 86 87 88 89 90 91 92 93 94 95 96 97 98 99 100 101 102 103 104 105 106 107 108 109 110 111 112 113 114 115 116 117 118 119 120 121 122 123 124 125 126 127 128 129 130 131 132 133 134 135 136 137 138 139 140 141 142 143 144 145 146 147 148 149 150 151 152 153 154 155 156 157 158 159 160 161 162 163 164 165 166 167 231 232 233 234 235 236 237 238 239 240 241 242 243 247 248 250 251 252 253 254 255 256 257 258 259 260 262 263 265 266 270 274 276 277 278 279 280 281 282 283 284 285 286 287 288 289 290 291 294 295 296 298 300 301 302 303 304 305 306 307 308 309 310 311 312 313 314 315 316 317 318 319 321 322 323 324 325 326 327 328 329 330 332 334 335 337 338 339 340 341 342 1159 1160 1161 1162 1163 1164 1165 1166 1167 1168 1169 1170 1171 1172 1173 1174 1175 1176 1177 1178 1179 1180 1181 1182 1183 1184 1185 1186 1187 1188 1189 1190 1191 1192 1193 1194 1195 1196 1197 1198 1199 1200 1201 1202 1203 1204 1205 1206 1207 1208 1209 1210 1211 1212 1213 1214 1215 1216 1217 1218 1219 1220 1221 1222 1223 1224 1225 1226 1227 1228 1229 1230 1231 1232 1233 1234 1235 1236 1237 1238 1239 1240 1241 1242 1243 1244 1245 1246 1247 1248 1249 1250 1251 1252 1253 1254 1255 1256 1257 1258 1259 1260 1261 1262 1263 1264 1265 1266 1267 1268 1269 1270 1271 1272 1273 1274 1275 1276 1277 1278 1279 1280 1281 1282 1283 1284 1285 1286 1287 1288 1289 1290 1291 1292 1293 1294 1295 1296 1297 1298 1299 1300 1301 1302 1303 1304 1305 1306 1307 1308 1309 1310 1311 1312 1313 1314 1315 1316 1317 1318 1319 1320 1321 1322 1323 1324 1325 1326 1327 1328 1329 1330 1331 1332 1333 1334 1335 1336 1337 1338 1339 1340 1341 1342 1343 1344 1345 1346 1347 1348 1349 1350 1351 1352 1353 1354 1355 1356 1357 1358 1359 1360 1361 1362 1363 1364 1365 1366 1367 1368 1369 1370 1371 1372 1373 1374 1375 1376 1377 1378 1379 1380 1381 1382 1383 1384 1385 1386 1387 1388 1389 1390 1391 1392 1393 1394 1395 1396 1397 1398 1399 1400 1401 1402 1403 1404 1405 1406 1407 1408 1409 1410 1411 1412 1413 1414 1415 1416 1417 1418 1419 1420 1421 1422 1423 1424 1425 1426 1427 1428 1429 1430 1431 1432 1433 1434 1435 1436 1437 1438 1439 1440 1441 1442 1443 1444 1445 0
d 168 187 188 0
d 169 191 192 0
d 170 189 190 0
d 171 199 200 0
d 172 205 206 207 208 209 210 211 212 213 214 0
d 173 205 206 207 208 209 210 211 212 213 214 0
d 174 203 204 0
d 175 193 194 0
d 176 197 198 0
d 177 201 202 0
d 178 195 196 0
d 179 215 216 217 218 219 220 221 222 223 224 225 226 227 228 0
d 180 215 216 217 218 219 220 221 222 223 224 225 226 227 228 0
d 181 215 216 217 218 219 220 221 222 223 224 225 226 227 228 0
d 182 215 216 217 218 219 220 221 222 223 224 225 226 227 228 0
d 183 215 216 217 218 219 220 221 222 223 224 225 226 227 228 0
d 184 215 216 217 218 219 220 221 222 223 224 225 226 227 228 0
d 185 215 216 217 218 219 220 221 222 223 224 225 226 227 228 0
d 186 215 216 217 218 219 220 221 222 223 224 225 226 227 228 0
d 229 1 2 3 4 5 6 7 8 9 10 11 12 13 14 15 16 17 18 19 20 21 22 23 24 25 26 27 28 29 30 31 32 187 188 189 190 191 192 193 194 195 196 197 198 199 200 201 202 203 204 205 206 207 208 209 210 211 212 213 214 215 216 217 218 219 220 221 222 223 224 225 226 227 228 0
d 230 1 2 3 4 5 6 7 8 9 10 11 12 13 14 15 16 17 18 19 20 21 22 23 24 25 26 27 28 29 30 31 32 187 188 189 190 191 192 193 194 195 196 197 198 199 200 201 202 203 204 205 206 207 208 209 210 211 212 213 214 215 216 217 218 219 220 221 222 223 224 225 226 227 228 0
d 244 1 2 3 4 5 6 7 8 9 10 11 12 13 14 15 16 17 18 19 20 21 22 23 24 25 26 27 28 29 30 31 32 187 188 189 190 191 192 193 194 195 196 197 198 199 200 201 202 203 204 205 206 207 208 209 210 211 212 213 214 215 216 217 218 219 220 221 222 223 224 225 226 227 228 0
d 245 1 2 3 4 5 6 7 8 9 10 11 12 13 14 15 16 17 18 19 20 21 22 23 24 25 26 27 28 29 30 31 32 187 188 189 190 191 192 193 194 195 196 197 198 199 200 201 202 203 204 205 206 207 208 209 210 211 212 213 214 215 216 217 218 219 220 221 222 223 224 225 226 227 228 0
d 246 1 2 3 4 5 6 7 8 9 10 11 12 13 14 15 16 17 18 19 20 21 22 23 24 25 26 27 28 29 30 31 32 187 188 189 190 191 192 193 194 195 196 197 198 199 200 201 202 203 204 205 206 207 208 209 210 211 212 213 214 215 216 217 218 219 220 221 222 223 224 225 226 227 228 0
d 249 1 2 3 4 5 6 7 8 9 10 11 12 13 14 15 16 17 18 19 20 21 22 23 24 25 26 27 28 29 30 31 32 187 188 189 190 191 192 193 194 195 196 197 198 199 200 201 202 203 204 205 206 207 208 209 210 211 212 213 214 215 216 217 218 219 220 221 222 223 224 225 226 227 228 0
d 261 1 2 3 4 5 6 7 8 9 10 11 12 13 14 15 16 17 18 19 20 21 22 23 24 25 26 27 28 29 30 31 32 187 188 189 190 191 192 193 194 195 196 197 198 199 200 201 202 203 204 205 206 207 208 209 210 211 212 213 214 215 216 217 218 219 220 221 222 223 224 225 226 227 228 0
d 264 1 2 3 4 5 6 7 8 9 10 11 12 13 14 15 16 17 18 19 20 21 22 23 24 25 26 27 28 29 30 31 32 187 188 189 190 191 192 193 194 195 196 197 198 199 200 201 202 203 204 205 206 207 208 209 210 211 212 213 214 215 216 217 218 219 220 221 222 223 224 225 226 227 228 0
d 267 1 2 3 4 5 6 7 8 9 10 11 12 13 14 15 16 17 18 19 20 21 22 23 24 25 26 27 28 29 30 31 32 187 188 189 190 191 192 193 194 195 196 197 198 199 200 201 202 203 204 205 206 207 208 209 210 211 212 213 214 215 216 217 218 219 220 221 222 223 224 225 226 227 228 0
d 268 1 2 3 4 5 6 7 8 9 10 11 12 13 14 15 16 17 18 19 20 21 22 23 24 25 26 27 28 29 30 31 32 187 188 189 190 191 192 193 194 195 196 197 198 199 200 201 202 203 204 205 206 207 208 209 210 211 212 213 214 215 216 217 218 219 220 221 222 223 224 225 226 227 228 0
d 269 1 2 3 4 5 6 7 8 9 10 11 12 13 14 15 16 17 18 19 20 21 22 23 24 25 26 27 28 29 30 31 32 187 188 189 190 191 192 193 194 195 196 197 198 199 200 201 202 203 204 205 206 207 208 209 210 211 212 213 214 215 216 217 218 219 220 221 222 223 224 225 226 227 228 0
d 271 1 2 3 4 5 6 7 8 9 10 11 12 13 14 15 16 17 18 19 20 21 22 23 24 25 26 27 28 29 30 31 32 187 188 189 190 191 192 193 194 195 196 197 198 199 200 201 202 203 204 205 206 207 208 209 210 211 212 213 214 215 216 217 218 219 220 221 222 223 224 225 226 227 228 0
d 272 1 2 3 4 5 6 7 8 9 10 11 12 13 14 15 16 17 18 19 20 21 22 23 24 25 26 27 28 29 30 31 32 187 188 189 190 191 192 193 194 195 196 197 198 199 200 201 202 203 204 205 206 207 208 209 210 211 212 213 214 215 216 217 218 219 220 221 222 223 224 225 226 227 228 0
d 273 1 2 3 4 5 6 7 8 9 10 11 12 13 14 15 16 17 18 19 20 21 22 23 24 25 26 27 28 29 30 31 32 187 188 189 190 191 192 193 194 195 196 197 198 199 200 201 202 203 204 205 206 207 208 209 210 211 212 213 214 215 216 217 218 219 220 221 222 223 224 225 226 227 228 0
d 275 1 2 3 4 5 6 7 8 9 10 11 12 13 14 15 16 17 18 19 20 21 22 23 24 25 26 27 28 29 30 31 32 187 188 189 190 191 192 193 194 195 196 197 198 199 200 201 202 203 204 205 206 207 208 209 210 211 212 213 214 215 216 217 218 219 220 221 222 223 224 225 226 227 228 0
d 292 1 2 3 4 5 6 7 8 9 10 11 12 13 14 15 16 17 18 19 20 21 22 23 24 25 26 27 28 29 30 31 32 187 188 189 190 191 192 193 194 195 196 197 198 199 200 201 202 203 204 205 206 207 208 209 210 211 212 213 214 215 216 217 218 219 220 221 222 223 224 225 226 227 228 0
d 293 1 2 3 4 5 6 7 8 9 10 11 12 13 14 15 16 17 18 19 20 21 22 23 24 25 26 27 28 29 30 31 32 187 188 189 190 191 192 193 194 195 196 197 198 199 200 201 202 203 204 205 206 207 208 209 210 211 212 213 214 215 216 217 218 219 220 221 222 223 224 225 226 227 228 0
d 297 1 2 3 4 5 6 7 8 9 10 11 12 13 14 15 16 17 18 19 20 21 22 23 24 25 26 27 28 29 30 31 32 187 188 189 190 191 192 193 194 195 196 197 198 199 200 201 202 203 204 205 206 207 208 209 210 211 212 213 214 215 216 217 218 219 220 221 222 223 224 225 226 227 228 0
d 299 1 2 3 4 5 6 7 8 9 10 11 12 13 14 15 16 17 18 19 20 21 22 23 24 25 26 27 28 29 30 31 32 187 188 189 190 191 192 193 194 195 196 197 198 199 200 201 202 203 204 205 206 207 208 209 210 211 212 213 214 215 216 217 218 219 220 221 222 223 224 225 226 227 228 0
d 320 1 2 3 4 5 6 7 8 9 10 11 12 13 14 15 16 17 18 19 20 21 22 23 24 25 26 27 28 29 30 31 32 187 188 189 190 191 192 193 194 195 196 197 198 199 200 201 202 203 204 205 206 207 208 209 210 211 212 213 214 215 216 217 218 219 220 221 222 223 224 225 226 227 228 0
d 331 1 2 3 4 5 6 7 8 9 10 11 12 13 14 15 16 17 18 19 20 21 22 23 24 25 26 27 28 29 30 31 32 187 188 189 190 191 192 193 194 195 196 197 198 199 200 201 202 203 204 205 206 207 208 209 210 211 212 213 214 215 216 217 218 219 220 221 222 223 224 225 226 227 228 0
d 333 1 2 3 4 5 6 7 8 9 10 11 12 13 14 15 16 17 18 19 20 21 22 23 24 25 26 27 28 29 30 31 32 187 188 189 190 191 192 193 194 195 196 197 198 199 200 201 202 203 204 205 206 207 208 209 210 211 212 213 214 215 216 217 218 219 220 221 222 223 224 225 226 227 228 0
d 336 1 2 3 4 5 6 7 8 9 10 11 12 13 14 15 16 17 18 19 20 21 22 23 24 25 26 27 28 29 30 31 32 187 188 189 190 191 192 193 194 195 196 197 198 199 200 201 202 203 204 205 206 207 208 209 210 211 212 213 214 215 216 217 218 219 220 221 222 223 224 225 226 227 228 0
d 343 1 2 3 4 5 6 7 8 9 10 11 12 13 14 15 16 17 18 19 20 21 22 23 24 25 26 27 28 29 30 31 32 187 188 189 190 191 192 193 194 195 196 197 198 199 200 201 202 203 204 205 206 207 208 209 210 211 212 213 214 215 216 217 218 219 220 221 222 223 224 225 226 227 228 0
1159 -33 0
-1159 33 0
1160 -34 0
-1160 34 0
-1161 -35 0
1161 35 0
1162 -36 0
-1162 36 0
1163 -37 0
-1163 37 0
-1164 -38 0
1164 38 0
1165 -39 0
-1165 39 0
1166 -40 0
-1166 40 0
-1167 -41 0
1167 41 0
-12 -42 0
12 42 0
-1168 -43 0
1168 43 0
-11 -44 0
11 44 0
-1169 -45 0
1169 45 0
-10 -46 0
10 46 0
-1170 -47 0
1170 47 0
-9 -48 0
9 48 0
-1171 -49 0
1171 49 0
-49 -50 0
49 50 0
1172 -51 0
-1172 51 0
1174 -52 0
-1174 52 0
1176 -53 0
-1176 53 0
-1179 -54 0
1179 54 0
1180 -55 0
-1180 55 0
1181 -56 0
-1181 56 0
-1182 -57 0
1182 57 0
1183 -58 0
-1183 58 0
1184 -59 0
-1184 59 0
1185 -60 0
-1185 60 0
1186 -61 0
-1186 61 0
-1187 -62 0
1187 62 0
1188 -63 0
-1188 63 0
1189 -64 0
-1189 64 0
-1190 -65 0
1190 65 0
1191 -66 0
-1191 66 0
1192 -67 0
-1192 67 0
-1193 -68 0
1193 68 0
1194 -69 0
-1194 69 0
1195 -70 0
-1195 70 0
-1196 -71 0
1196 71 0
-8 -72 0
8 72 0
-1197 -73 0
1197 73 0
-7 -74 0
7 74 0
-1198 -75 0
1198 75 0
-6 -76 0
6 76 0
-1199 -77 0
1199 77 0
-5 -78 0
5 78 0
-1200 -79 0
1200 79 0
-79 -80 0
79 80 0
1201 -81 0
-1201 81 0
1203 -82 0
-1203 82 0
1205 -83 0
-1205 83 0
-1208 -84 0
1208 84 0
1209 -85 0
-1209 85 0
1210 -86 0
-1210 86 0
-1211 -87 0
1211 87 0
1212 -88 0
-1212 88 0
1213 -89 0
-1213 89 0
1214 -90 0
-1214 90 0
1215 -91 0
-1215 91 0
-1216 -92 0
1216 92 0
1217 -93 0
-1217 93 0
1218 -94 0
-1218 94 0
-1219 -95 0
1219 95 0
1220 -96 0
-1220 96 0
1221 -97 0
-1221 97 0
-1222 -98 0
1222 98 0
1223 -99 0
-1223 99 0
1224 -100 0
-1224 100 0
-1225 -101 0
1225 101 0
-4 -102 0
4 102 0
-1226 -103 0
1226 103 0
-3 -104 0
3 104 0
-1227 -105 0
1227 105 0
-2 -106 0
2 106 0
-1228 -107 0
1228 107 0
-1 -108 0
1 108 0
-1229 -109 0
1229 109 0
-109 -110 0
109 110 0
1230 -111 0
-1230 111 0
1232 -112 0
-1232 112 0
1234 -113 0
-1234 113 0
-1237 -114 0
1237 114 0
1238 -115 0
-1238 115 0
1239 -116 0
-1239 116 0
-1240 -117 0
1240 117 0
1241 -118 0
-1241 118 0
1242 -119 0
-1242 119 0
1243 -120 0
-1243 120 0
1244 -121 0
-1244 121 0
-1245 -122 0
1245 122 0
1246 -123 0
-1246 123 0
1247 -124 0
-1247 124 0
-1248 -125 0
1248 125 0
1249 -126 0
-1249 126 0
1250 -127 0
-1250 127 0
-1251 -128 0
1251 128 0
1252 -129 0
-1252 129 0
1253 -130 0
-1253 130 0
-1254 -131 0
1254 131 0
-16 -132 0
16 132 0
-1255 -133 0
1255 133 0
-15 -134 0
15 134 0
-1256 -135 0
1256 135 0
-14 -136 0
14 136 0
-1257 -137 0
1257 137 0
-13 -138 0
13 138 0
-1258 -139 0
1258 139 0
-139 -140 0
139 140 0
1259 -141 0
-1259 141 0
1261 -142 0
-1261 142 0
1263 -143 0
-1263 143 0
-1266 -144 0
1266 144 0
1267 -145 0
-1267 145 0
1268 -146 0
-1268 146 0
-1269 -147 0
1269 147 0
1270 -148 0
-1270 148 0
1271 -149 0
-1271 149 0
-144 -150 0
144 150 0
-1272 -151 0
1272 151 0
-54 -152 0
54 152 0
-1273 -153 0
1273 153 0
-84 -154 0
84 154 0
-1274 -155 0
1274 155 0
-114 -156 0
114 156 0
-1275 -157 0
1275 157 0
-157 -158 0
157 158 0
1276 -159 0
-1276 159 0
1278 -160 0
-1278 160 0
1280 -161 0
-1280 161 0
-1283 -162 0
1283 162 0
1284 -163 0
-1284 163 0
1285 -164 0
-1285 164 0
-1286 -165 0
1286 165 0
1287 -166 0
-1287 166 0
1288 -167 0
-1288 167 0
1159 -231 0
-1159 231 0
1160 -232 0
-1160 232 0
-1289 -233 0
1289 233 0
1162 -234 0
-1162 234 0
1163 -235 0
-1163 235 0
-1290 -236 0
1290 236 0
-12 -237 0
12 237 0
-1291 -238 0
1291 238 0
-10 -239 0
10 239 0
-1292 -240 0
1292 240 0
-9 -241 0
9 241 0
-1293 -242 0
1293 242 0
-242 -243 0
242 243 0
-1296 -247 0
1296 247 0
-247 -248 0
247 248 0
1191 -250 0
-1191 250 0
1192 -251 0
-1192 251 0
-1297 -252 0
1297 252 0
1194 -253 0
-1194 253 0
1195 -254 0
-1195 254 0
-1298 -255 0
1298 255 0
-1299 -256 0
1299 256 0
-7 -257 0
7 257 0
-1300 -258 0
1300 258 0
-6 -259 0
6 259 0
-1301 -260 0
1301 260 0
1302 -262 0
-1302 262 0
1304 -263 0
-1304 263 0
-1307 -265 0
1307 265 0
-265 -266 0
265 266 0
-269 -270 0
269 270 0
-1310 -274 0
1310 274 0
1223 -276 0
-1223 276 0
1224 -277 0
-1224 277 0
-1311 -278 0
1311 278 0
1246 -279 0
-1246 279 0
1247 -280 0
-1247 280 0
-1312 -281 0
1312 281 0
1252 -282 0
-1252 282 0
1253 -283 0
-1253 283 0
-1313 -284 0
1313 284 0
-15 -285 0
15 285 0
-1314 -286 0
1314 286 0
-14 -287 0
14 287 0
-1315 -288 0
1315 288 0
1267 -289 0
-1267 289 0
1268 -290 0
-1268 290 0
-1316 -291 0
1316 291 0
1209 -294 0
-1209 294 0
1210 -295 0
-1210 295 0
-1317 -296 0
1317 296 0
1320 -298 0
-1320 298 0
1323 -300 0
-1323 300 0
1325 -301 0
-1325 301 0
1328 -302 0
-1328 302 0
1331 -303 0
-1331 303 0
1334 -304 0
-1334 304 0
1337 -305 0
-1337 305 0
1340 -306 0
-1340 306 0
1343 -307 0
-1343 307 0
1346 -308 0
-1346 308 0
1349 -309 0
-1349 309 0
1352 -310 0
-1352 310 0
1355 -311 0
-1355 311 0
1358 -312 0
-1358 312 0
1361 -313 0
-1361 313 0
1364 -314 0
-1364 314 0
1367 -315 0
-1367 315 0
1370 -316 0
-1370 316 0
1373 -317 0
-1373 317 0
1376 -318 0
-1376 318 0
1379 -319 0
-1379 319 0
1382 -321 0
-1382 321 0
1385 -322 0
-1385 322 0
1389 -323 0
-1389 323 0
1392 -324 0
-1392 324 0
1395 -325 0
-1395 325 0
1398 -326 0
-1398 326 0
1401 -327 0
-1401 327 0
1404 -328 0
-1404 328 0
1407 -329 0
-1407 329 0
-1413 -330 0
1413 330 0
-1419 -332 0
1419 332 0
1424 -334 0
-1424 334 0
1427 -335 0
-1427 335 0
1430 -337 0
-1430 337 0
1433 -338 0
-1433 338 0
1436 -339 0
-1436 339 0
1439 -340 0
-1439 340 0
1442 -341 0
-1442 341 0
1445 -342 0
-1445 342 0
-33 -11 0
-33 27 0
11 -27 33 0
-34 11 0
-34 -27 0
-11 27 34 0
-33 35 0
-34 35 0
-35 33 34 0
-36 -10 0
-36 26 0
10 -26 36 0
-37 10 0
-37 -26 0
-10 26 37 0
-36 38 0
-37 38 0
-38 36 37 0
-39 -9 0
-39 25 0
9 -25 39 0
-40 9 0
-40 -25 0
-9 25 40 0
-39 41 0
-40 41 0
-41 39 40 0
-12 -42 0
12 42 0
-42 43 0
-28 43 0
-43 42 28 0
-11 -44 0
11 44 0
-44 45 0
-27 45 0
-45 44 27 0
-10 -46 0
10 46 0
-46 47 0
-26 47 0
-47 46 26 0
-9 -48 0
9 48 0
-48 49 0
-25 49 0
-49 48 25 0
-49 -50 0
49 50 0
-51 -41 0
-51 -47 0
41 47 51 0
-52 -38 0
-52 -41 0
-52 -45 0
38 41 45 52 0
-53 -35 0
-53 -38 0
-53 -41 0
-53 -43 0
35 38 41 43 53 0
-50 54 0
-51 54 0
-52 54 0
-53 54 0
-54 50 51 52 53 0
-55 -12 0
-55 28 0
12 -28 55 0
-56 12 0
-56 -28 0
-12 28 56 0
-55 57 0
-56 57 0
-57 55 56 0
-58 -57 0
-58 -35 0
-58 -38 0
-58 -41 0
57 35 38 41 58 0
-59 -54 0
-59 -58 0
54 58 59 0
-60 -54 0
-60 59 0
54 -59 60 0
-61 54 0
-61 -59 0
-54 59 61 0
-60 62 0
-61 62 0
-62 60 61 0
-63 -7 0
-63 23 0
7 -23 63 0
-64 7 0
-64 -23 0
-7 23 64 0
-63 65 0
-64 65 0
-65 63 64 0
-66 -6 0
-66 22 0
6 -22 66 0
-67 6 0
-67 -22 0
-6 22 67 0
-66 68 0
-67 68 0
-68 66 67 0
-69 -5 0
-69 21 0
5 -21 69 0
-70 5 0
-70 -21 0
-5 21 70 0
-69 71 0
-70 71 0
-71 69 70 0
-8 -72 0
8 72 0
-72 73 0
-24 73 0
-73 72 24 0
-7 -74 0
7 74 0
-74 75 0
-23 75 0
-75 74 23 0
-6 -76 0
6 76 0
-76 77 0
-22 77 0
-77 76 22 0
-5 -78 0
5 78 0
-78 79 0
-21 79 0
-79 78 21 0
-79 -80 0
79 80 0
-81 -71 0
-81 -77 0
71 77 81 0
-82 -68 0
-82 -71 0
-82 -75 0
68 71 75 82 0
-83 -65 0
-83 -68 0
-83 -71 0
-83 -73 0
65 68 71 73 83 0
-80 84 0
-81 84 0
-82 84 0
-83 84 0
-84 80 81 82 83 0
-85 -8 0
-85 24 0
8 -24 85 0
-86 8 0
-86 -24 0
-8 24 86 0
-85 87 0
-86 87 0
-87 85 86 0
-88 -87 0
-88 -65 0
-88 -68 0
-88 -71 0
87 65 68 71 88 0
-89 -84 0
-89 -88 0
84 88 89 0
-90 -84 0
-90 89 0
84 -89 90 0
-91 84 0
-91 -89 0
-84 89 91 0
-90 92 0
-91 92 0
-92 90 91 0
-93 -3 0
-93 19 0
3 -19 93 0
-94 3 0
-94 -19 0
-3 19 94 0
-93 95 0
-94 95 0
-95 93 94 0
-96 -2 0
-96 18 0
2 -18 96 0
-97 2 0
-97 -18 0
-2 18 97 0
-96 98 0
-97 98 0
-98 96 97 0
-99 -1 0
-99 17 0
1 -17 99 0
-100 1 0
-100 -17 0
-1 17 100 0
-99 101 0
-100 101 0
-101 99 100 0
-4 -102 0
4 102 0
-102 103 0
-20 103 0
-103 102 20 0
-3 -104 0
3 104 0
-104 105 0
-19 105 0
-105 104 19 0
-2 -106 0
2 106 0
-106 107 0
-18 107 0
-107 106 18 0
-1 -108 0
1 108 0
-108 109 0
-17 109 0
-109 108 17 0
-109 -110 0
109 110 0
-111 -101 0
-111 -107 0
101 107 111 0
-112 -98 0
-112 -101 0
-112 -105 0
98 101 105 112 0
-113 -95 0
-113 -98 0
-113 -101 0
-113 -103 0
95 98 101 103 113 0
-110 114 0
-111 114 0
-112 114 0
-113 114 0
-114 110 111 112 113 0
-115 -4 0
-115 20 0
4 -20 115 0
-116 4 0
-116 -20 0
-4 20 116 0
-115 117 0
-116 117 0
-117 115 116 0
-118 -117 0
-118 -95 0
-118 -98 0
-118 -101 0
117 95 98 101 118 0
-119 -114 0
-119 -118 0
114 118 119 0
-120 -114 0
-120 119 0
114 -119 120 0
-121 114 0
-121 -119 0
-114 119 121 0
-120 122 0
-121 122 0
-122 120 121 0
-123 -15 0
-123 31 0
15 -31 123 0
-124 15 0
-124 -31 0
-15 31 124 0
-123 125 0
-124 125 0
-125 123 124 0
-126 -14 0
-126 30 0
14 -30 126 0
-127 14 0
-127 -30 0
-14 30 127 0
-126 128 0
-127 128 0
-128 126 127 0
-129 -13 0
-129 29 0
13 -29 129 0
-130 13 0
-130 -29 0
-13 29 130 0
-129 131 0
-130 131 0
-131 129 130 0
-16 -132 0
16 132 0
-132 133 0
-32 133 0
-133 132 32 0
-15 -134 0
15 134 0
-134 135 0
-31 135 0
-135 134 31 0
-14 -136 0
14 136 0
-136 137 0
-30 137 0
-137 136 30 0
-13 -138 0
13 138 0
-138 139 0
-29 139 0
-139 138 29 0
-139 -140 0
139 140 0
-141 -131 0
-141 -137 0
131 137 141 0
-142 -128 0
-142 -131 0
-142 -135 0
128 131 135 142 0
-143 -125 0
-143 -128 0
-143 -131 0
-143 -133 0
125 128 131 133 143 0
-140 144 0
-141 144 0
-142 144 0
-143 144 0
-144 140 141 142 143 0
-145 -16 0
-145 32 0
16 -32 145 0
-146 16 0
-146 -32 0
-16 32 146 0
-145 147 0
-146 147 0
-147 145 146 0
-148 -147 0
-148 -125 0
-148 -128 0
-148 -131 0
147 125 128 131 148 0
-149 -144 0
-149 -148 0
144 148 149 0
-144 -150 0
144 150 0
-150 151 0
-149 151 0
-151 150 149 0
-54 -152 0
54 152 0
-152 153 0
-59 153 0
-153 152 59 0
-84 -154 0
84 154 0
-154 155 0
-89 155 0
-155 154 89 0
-114 -156 0
114 156 0
-156 157 0
-119 157 0
-157 156 119 0
-157 -158 0
157 158 0
-159 -122 0
-159 -155 0
122 155 159 0
-160 -92 0
-160 -122 0
-160 -153 0
92 122 153 160 0
-161 -62 0
-161 -92 0
-161 -122 0
-161 -151 0
62 92 122 151 161 0
-158 162 0
-159 162 0
-160 162 0
-161 162 0
-162 158 159 160 161 0
-163 -144 0
-163 149 0
144 -149 163 0
-164 144 0
-164 -149 0
-144 149 164 0
-163 165 0
-164 165 0
-165 163 164 0
-166 -165 0
-166 -62 0
-166 -92 0
-166 -122 0
165 62 92 122 166 0
-167 -162 0
-167 -166 0
162 166 167 0
-180 -229 0
180 229 0
-229 230 0
-181 230 0
-230 229 181 0
-231 -11 0
-231 27 0
11 -27 231 0
-232 11 0
-232 -27 0
-11 27 232 0
-231 233 0
-232 233 0
-233 231 232 0
-234 -10 0
-234 26 0
10 -26 234 0
-235 10 0
-235 -26 0
-10 26 235 0
-234 236 0
-235 236 0
-236 234 235 0
-12 -237 0
12 237 0
-237 238 0
-28 238 0
-238 237 28 0
-10 -239 0
10 239 0
-239 240 0
-26 240 0
-240 239 26 0
-9 -241 0
9 241 0
-241 242 0
-25 242 0
-242 241 25 0
-242 -243 0
242 243 0
-244 -175 0
-244 -240 0
175 240 244 0
-245 -236 0
-245 -175 0
-245 -178 0
236 175 178 245 0
-246 -233 0
-246 -236 0
-246 -175 0
-246 -238 0
233 236 175 238 246 0
-243 247 0
-244 247 0
-245 247 0
-246 247 0
-247 243 244 245 246 0
-247 -248 0
247 248 0
-248 249 0
-183 249 0
-249 248 183 0
-250 -6 0
-250 22 0
6 -22 250 0
-251 6 0
-251 -22 0
-6 22 251 0
-250 252 0
-251 252 0
-252 250 251 0
-253 -5 0
-253 21 0
5 -21 253 0
-254 5 0
-254 -21 0
-5 21 254 0
-253 255 0
-254 255 0
-255 253 254 0
-8 256 0
-24 256 0
-256 8 24 0
-7 -257 0
7 257 0
-257 258 0
-23 258 0
-258 257 23 0
-6 -259 0
6 259 0
-259 260 0
-22 260 0
-260 259 22 0
-170 -261 0
170 261 0
-262 -255 0
-262 -260 0
255 260 262 0
-263 -252 0
-263 -255 0
-263 -258 0
252 255 258 263 0
-264 -169 0
-264 -252 0
-264 -255 0
-264 -256 0
169 252 255 256 264 0
-261 265 0
-262 265 0
-263 265 0
-264 265 0
-265 261 262 263 264 0
-265 -266 0
265 266 0
-266 267 0
-185 267 0
-267 266 185 0
-173 -268 0
173 268 0
-268 269 0
-172 269 0
-269 268 172 0
-269 -270 0
269 270 0
-271 -186 0
-271 -267 0
186 267 271 0
-272 -184 0
-272 -186 0
-272 -249 0
184 186 249 272 0
-273 -182 0
-273 -184 0
-273 -186 0
-273 -230 0
182 184 186 230 273 0
-270 274 0
-271 274 0
-272 274 0
-273 274 0
-274 270 271 272 273 0
-275 -274 0
-275 -179 0
274 179 275 0
-276 -1 0
-276 17 0
1 -17 276 0
-277 1 0
-277 -17 0
-1 17 277 0
-276 278 0
-277 278 0
-278 276 277 0
-279 -15 0
-279 31 0
15 -31 279 0
-280 15 0
-280 -31 0
-15 31 280 0
-279 281 0
-280 281 0
-281 279 280 0
-282 -13 0
-282 29 0
13 -29 282 0
-283 13 0
-283 -29 0
-13 29 283 0
-282 284 0
-283 284 0
-284 282 283 0
-15 -285 0
15 285 0
-285 286 0
-31 286 0
-286 285 31 0
-14 -287 0
14 287 0
-287 288 0
-30 288 0
-288 287 30 0
-289 -16 0
-289 32 0
16 -32 289 0
-290 16 0
-290 -32 0
-16 32 290 0
-289 291 0
-290 291 0
-291 289 290 0
-292 -291 0
-292 -281 0
-292 -177 0
-292 -284 0
291 281 177 284 292 0
-293 -176 0
-293 -233 0
-293 -236 0
-293 -175 0
176 233 236 175 293 0
-294 -8 0
-294 24 0
8 -24 294 0
-295 8 0
-295 -24 0
-8 24 295 0
-294 296 0
-295 296 0
-296 294 295 0
-297 -296 0
-297 -169 0
-297 -252 0
-297 -255 0
296 169 252 255 297 0
-298 -167 275 0
-298 167 -275 0
298 -167 -275 0
298 167 275 0
-299 -166 179 0
-299 166 -179 0
299 -166 -179 0
299 166 179 0
-300 -162 274 0
-300 162 -274 0
300 -162 -274 0
300 162 274 0
-298 -299 -300 301 0
-301 298 0
-301 299 0
-301 300 0
-3 -187 -302 0
-3 187 302 0
3 -187 302 0
3 187 -302 0
-19 -188 -303 0
-19 188 303 0
19 -188 303 0
19 188 -303 0
-5 -189 -304 0
-5 189 304 0
5 -189 304 0
5 189 -304 0
-21 -190 -305 0
-21 190 305 0
21 -190 305 0
21 190 -305 0
-7 -191 -306 0
-7 191 306 0
7 -191 306 0
7 191 -306 0
-23 -192 -307 0
-23 192 307 0
23 -192 307 0
23 192 -307 0
-9 -193 -308 0
-9 193 308 0
9 -193 308 0
9 193 -308 0
-25 -194 -309 0
-25 194 309 0
25 -194 309 0
25 194 -309 0
-11 -195 -310 0
-11 195 310 0
11 -195 310 0
11 195 -310 0
-27 -196 -311 0
-27 196 311 0
27 -196 311 0
27 196 -311 0
-12 -197 -312 0
-12 197 312 0
12 -197 312 0
12 197 -312 0
-28 -198 -313 0
-28 198 313 0
28 -198 313 0
28 198 -313 0
-13 -199 -314 0
-13 199 314 0
13 -199 314 0
13 199 -314 0
-29 -200 -315 0
-29 200 315 0
29 -200 315 0
29 200 -315 0
-14 -201 -316 0
-14 201 316 0
14 -201 316 0
14 201 -316 0
-30 -202 -317 0
-30 202 317 0
30 -202 317 0
30 202 -317 0
-16 -203 -318 0
-16 203 318 0
16 -203 318 0
16 203 -318 0
-32 -204 -319 0
-32 204 319 0
32 -204 319 0
32 204 -319 0
-168 -205 -320 0
-168 205 320 0
168 -205 320 0
168 205 -320 0
-2 -206 -321 0
-2 206 321 0
2 -206 321 0
2 206 -321 0
-18 -207 -322 0
-18 207 322 0
18 -207 322 0
18 207 -322 0
-278 -208 -323 0
-278 208 323 0
278 -208 323 0
278 208 -323 0
-4 -209 -324 0
-4 209 324 0
4 -209 324 0
4 209 -324 0
-20 -210 -325 0
-20 210 325 0
20 -210 325 0
20 210 -325 0
-3 -211 -326 0
-3 211 326 0
3 -211 326 0
3 211 -326 0
-19 -212 -327 0
-19 212 327 0
19 -212 327 0
19 212 -327 0
-1 -213 -328 0
-1 213 328 0
1 -213 328 0
1 213 -328 0
-17 -214 -329 0
-17 214 329 0
17 -214 329 0
17 214 -329 0
-281 -215 -330 0
-281 215 330 0
281 -215 330 0
281 215 -330 0
-177 -216 -331 0
-177 216 331 0
177 -216 331 0
177 216 -331 0
-284 -217 -332 0
-284 217 332 0
284 -217 332 0
284 217 -332 0
-174 -218 -333 0
-174 218 333 0
174 -218 333 0
174 218 -333 0
-286 -219 -334 0
-286 219 334 0
286 -219 334 0
286 219 -334 0
-288 -220 -335 0
-288 220 335 0
288 -220 335 0
288 220 -335 0
-171 -221 -336 0
-171 221 336 0
171 -221 336 0
171 221 -336 0
-292 -222 -337 0
-292 222 337 0
292 -222 337 0
292 222 -337 0
-247 -223 -338 0
-247 223 338 0
247 -223 338 0
247 223 -338 0
-293 -224 -339 0
-293 224 339 0
293 -224 339 0
293 224 -339 0
-265 -225 -340 0
-265 225 340 0
265 -225 340 0
265 225 -340 0
-297 -226 -341 0
-297 226 341 0
297 -226 341 0
297 226 -341 0
-173 -227 -342 0
-173 227 342 0
173 -227 342 0
173 227 -342 0
-172 -228 -343 0
-172 228 343 0
172 -228 343 0
172 228 -343 0
302 303 304 305 306 307 308 309 310 311 312 313 314 315 316 317 318 319 320 321 322 323 324 325 326 327 328 329 330 331 332 333 334 335 336 337 338 339 340 341 342 343 301 0
-11 -1159 0
27 -1159 0
11 -27 1159 0
11 -1160 0
-27 -1160 0
-11 27 1160 0
-33 -1161 0
-34 -1161 0
33 34 1161 0
-10 -1162 0
26 -1162 0
10 -26 1162 0
10 -1163 0
-26 -1163 0
-10 26 1163 0
-36 -1164 0
-37 -1164 0
36 37 1164 0
-9 -1165 0
25 -1165 0
9 -25 1165 0
9 -1166 0
-25 -1166 0
-9 25 1166 0
-39 -1167 0
-40 -1167 0
39 40 1167 0
-28 -1168 0
-42 -1168 0
28 42 1168 0
-27 -1169 0
-44 -1169 0
27 44 1169 0
-26 -1170 0
-46 -1170 0
26 46 1170 0
-25 -1171 0
-48 -1171 0
25 48 1171 0
-41 -1172 0
-47 -1172 0
41 47 1172 0
-38 -1173 0
-41 -1173 0
38 41 1173 0
-45 -1174 0
1173 -1174 0
45 -1173 1174 0
-35 -1175 0
1173 -1175 0
35 -1173 1175 0
-43 -1176 0
1175 -1176 0
43 -1175 1176 0
-50 -1177 0
-51 -1177 0
50 51 1177 0
-52 -1178 0
-53 -1178 0
52 53 1178 0
1177 -1179 0
1178 -1179 0
-1177 -1178 1179 0
-12 -1180 0
28 -1180 0
12 -28 1180 0
12 -1181 0
-28 -1181 0
-12 28 1181 0
-55 -1182 0
-56 -1182 0
55 56 1182 0
-57 -1183 0
1175 -1183 0
57 -1175 1183 0
-54 -1184 0
-58 -1184 0
54 58 1184 0
-54 -1185 0
59 -1185 0
54 -59 1185 0
54 -1186 0
-59 -1186 0
-54 59 1186 0
-60 -1187 0
-61 -1187 0
60 61 1187 0
-7 -1188 0
23 -1188 0
7 -23 1188 0
7 -1189 0
-23 -1189 0
-7 23 1189 0
-63 -1190 0
-64 -1190 0
63 64 1190 0
-6 -1191 0
22 -1191 0
6 -22 1191 0
6 -1192 0
-22 -1192 0
-6 22 1192 0
-66 -1193 0
-67 -1193 0
66 67 1193 0
-5 -1194 0
21 -1194 0
5 -21 1194 0
5 -1195 0
-21 -1195 0
-5 21 1195 0
-69 -1196 0
-70 -1196 0
69 70 1196 0
-24 -1197 0
-72 -1197 0
24 72 1197 0
-23 -1198 0
-74 -1198 0
23 74 1198 0
-22 -1199 0
-76 -1199 0
22 76 1199 0
-21 -1200 0
-78 -1200 0
21 78 1200 0
-71 -1201 0
-77 -1201 0
71 77 1201 0
-68 -1202 0
-71 -1202 0
68 71 1202 0
-75 -1203 0
1202 -1203 0
75 -1202 1203 0
-65 -1204 0
1202 -1204 0
65 -1202 1204 0
-73 -1205 0
1204 -1205 0
73 -1204 1205 0
-80 -1206 0
-81 -1206 0
80 81 1206 0
-82 -1207 0
-83 -1207 0
82 83 1207 0
1206 -1208 0
1207 -1208 0
-1206 -1207 1208 0
-8 -1209 0
24 -1209 0
8 -24 1209 0
8 -1210 0
-24 -1210 0
-8 24 1210 0
-85 -1211 0
-86 -1211 0
85 86 1211 0
-87 -1212 0
1204 -1212 0
87 -1204 1212 0
-84 -1213 0
-88 -1213 0
84 88 1213 0
-84 -1214 0
89 -1214 0
84 -89 1214 0
84 -1215 0
-89 -1215 0
-84 89 1215 0
-90 -1216 0
-91 -1216 0
90 91 1216 0
-3 -1217 0
19 -1217 0
3 -19 1217 0
3 -1218 0
-19 -1218 0
-3 19 1218 0
-93 -1219 0
-94 -1219 0
93 94 1219 0
-2 -1220 0
18 -1220 0
2 -18 1220 0
2 -1221 0
-18 -1221 0
-2 18 1221 0
-96 -1222 0
-97 -1222 0
96 97 1222 0
-1 -1223 0
17 -1223 0
1 -17 1223 0
1 -1224 0
-17 -1224 0
-1 17 1224 0
-99 -1225 0
-100 -1225 0
99 100 1225 0
-20 -1226 0
-102 -1226 0
20 102 1226 0
-19 -1227 0
-104 -1227 0
19 104 1227 0
-18 -1228 0
-106 -1228 0
18 106 1228 0
-17 -1229 0
-108 -1229 0
17 108 1229 0
-101 -1230 0
-107 -1230 0
101 107 1230 0
-98 -1231 0
-101 -1231 0
98 101 1231 0
-105 -1232 0
1231 -1232 0
105 -1231 1232 0
-95 -1233 0
1231 -1233 0
95 -1231 1233 0
-103 -1234 0
1233 -1234 0
103 -1233 1234 0
-110 -1235 0
-111 -1235 0
110 111 1235 0
-112 -1236 0
-113 -1236 0
112 113 1236 0
1235 -1237 0
1236 -1237 0
-1235 -1236 1237 0
-4 -1238 0
20 -1238 0
4 -20 1238 0
4 -1239 0
-20 -1239 0
-4 20 1239 0
-115 -1240 0
-116 -1240 0
115 116 1240 0
-117 -1241 0
1233 -1241 0
117 -1233 1241 0
-114 -1242 0
-118 -1242 0
114 118 1242 0
-114 -1243 0
119 -1243 0
114 -119 1243 0
114 -1244 0
-119 -1244 0
-114 119 1244 0
-120 -1245 0
-121 -1245 0
120 121 1245 0
-15 -1246 0
31 -1246 0
15 -31 1246 0
15 -1247 0
-31 -1247 0
-15 31 1247 0
-123 -1248 0
-124 -1248 0
123 124 1248 0
-14 -1249 0
30 -1249 0
14 -30 1249 0
14 -1250 0
-30 -1250 0
-14 30 1250 0
-126 -1251 0
-127 -1251 0
126 127 1251 0
-13 -1252 0
29 -1252 0
13 -29 1252 0
13 -1253 0
-29 -1253 0
-13 29 1253 0
-129 -1254 0
-130 -1254 0
129 130 1254 0
-32 -1255 0
-132 -1255 0
32 132 1255 0
-31 -1256 0
-134 -1256 0
31 134 1256 0
-30 -1257 0
-136 -1257 0
30 136 1257 0
-29 -1258 0
-138 -1258 0
29 138 1258 0
-131 -1259 0
-137 -1259 0
131 137 1259 0
-128 -1260 0
-131 -1260 0
128 131 1260 0
-135 -1261 0
1260 -1261 0
135 -1260 1261 0
-125 -1262 0
1260 -1262 0
125 -1260 1262 0
-133 -1263 0
1262 -1263 0
133 -1262 1263 0
-140 -1264 0
-141 -1264 0
140 141 1264 0
-142 -1265 0
-143 -1265 0
142 143 1265 0
1264 -1266 0
1265 -1266 0
-1264 -1265 1266 0
-16 -1267 0
32 -1267 0
16 -32 1267 0
16 -1268 0
-32 -1268 0
-16 32 1268 0
-145 -1269 0
-146 -1269 0
145 146 1269 0
-147 -1270 0
1262 -1270 0
147 -1262 1270 0
-144 -1271 0
-148 -1271 0
144 148 1271 0
-149 -1272 0
-150 -1272 0
149 150 1272 0
-59 -1273 0
-152 -1273 0
59 152 1273 0
-89 -1274 0
-154 -1274 0
89 154 1274 0
-119 -1275 0
-156 -1275 0
119 156 1275 0
-122 -1276 0
-155 -1276 0
122 155 1276 0
-92 -1277 0
-122 -1277 0
92 122 1277 0
-153 -1278 0
1277 -1278 0
153 -1277 1278 0
-62 -1279 0
1277 -1279 0
62 -1277 1279 0
-151 -1280 0
1279 -1280 0
151 -1279 1280 0
-158 -1281 0
-159 -1281 0
158 159 1281 0
-160 -1282 0
-161 -1282 0
160 161 1282 0
1281 -1283 0
1282 -1283 0
-1281 -1282 1283 0
-144 -1284 0
149 -1284 0
144 -149 1284 0
144 -1285 0
-149 -1285 0
-144 149 1285 0
-163 -1286 0
-164 -1286 0
163 164 1286 0
-165 -1287 0
1279 -1287 0
165 -1279 1287 0
-162 -1288 0
-166 -1288 0
162 166 1288 0
-231 -1289 0
-232 -1289 0
231 232 1289 0
-234 -1290 0
-235 -1290 0
234 235 1290 0
-28 -1291 0
-237 -1291 0
28 237 1291 0
-26 -1292 0
-239 -1292 0
26 239 1292 0
-25 -1293 0
-241 -1293 0
25 241 1293 0
-243 -1294 0
-244 -1294 0
243 244 1294 0
-245 -1295 0
-246 -1295 0
245 246 1295 0
1294 -1296 0
1295 -1296 0
-1294 -1295 1296 0
-250 -1297 0
-251 -1297 0
250 251 1297 0
-253 -1298 0
-254 -1298 0
253 254 1298 0
-8 -1299 0
-24 -1299 0
8 24 1299 0
-23 -1300 0
-257 -1300 0
23 257 1300 0
-22 -1301 0
-259 -1301 0
22 259 1301 0
-255 -1302 0
-260 -1302 0
255 260 1302 0
-252 -1303 0
-255 -1303 0
252 255 1303 0
-258 -1304 0
1303 -1304 0
258 -1303 1304 0
-261 -1305 0
-262 -1305 0
261 262 1305 0
-263 -1306 0
-264 -1306 0
263 264 1306 0
1305 -1307 0
1306 -1307 0
-1305 -1306 1307 0
-270 -1308 0
-271 -1308 0
270 271 1308 0
-272 -1309 0
-273 -1309 0
272 273 1309 0
1308 -1310 0
1309 -1310 0
-1308 -1309 1310 0
-276 -1311 0
-277 -1311 0
276 277 1311 0
-279 -1312 0
-280 -1312 0
279 280 1312 0
-282 -1313 0
-283 -1313 0
282 283 1313 0
-31 -1314 0
-285 -1314 0
31 285 1314 0
-30 -1315 0
-287 -1315 0
30 287 1315 0
-289 -1316 0
-290 -1316 0
289 290 1316 0
-294 -1317 0
-295 -1317 0
294 295 1317 0
167 -1318 0
-275 -1318 0
-167 275 1318 0
-167 -1319 0
275 -1319 0
167 -275 1319 0
-1318 -1320 0
-1319 -1320 0
1318 1319 1320 0
162 -1321 0
-274 -1321 0
-162 274 1321 0
-162 -1322 0
274 -1322 0
162 -274 1322 0
-1321 -1323 0
-1322 -1323 0
1321 1322 1323 0
298 -1324 0
299 -1324 0
-298 -299 1324 0
300 -1325 0
1324 -1325 0
-300 -1324 1325 0
-3 -1326 0
-187 -1326 0
3 187 1326 0
3 -1327 0
187 -1327 0
-3 -187 1327 0
-1326 -1328 0
-1327 -1328 0
1326 1327 1328 0
-19 -1329 0
-188 -1329 0
19 188 1329 0
19 -1330 0
188 -1330 0
-19 -188 1330 0
-1329 -1331 0
-1330 -1331 0
1329 1330 1331 0
-5 -1332 0
-189 -1332 0
5 189 1332 0
5 -1333 0
189 -1333 0
-5 -189 1333 0
-1332 -1334 0
-1333 -1334 0
1332 1333 1334 0
-21 -1335 0
-190 -1335 0
21 190 1335 0
21 -1336 0
190 -1336 0
-21 -190 1336 0
-1335 -1337 0
-1336 -1337 0
1335 1336 1337 0
-7 -1338 0
-191 -1338 0
7 191 1338 0
7 -1339 0
191 -1339 0
-7 -191 1339 0
-1338 -1340 0
-1339 -1340 0
1338 1339 1340 0
-23 -1341 0
-192 -1341 0
23 192 1341 0
23 -1342 0
192 -1342 0
-23 -192 1342 0
-1341 -1343 0
-1342 -1343 0
1341 1342 1343 0
-9 -1344 0
-193 -1344 0
9 193 1344 0
9 -1345 0
193 -1345 0
-9 -193 1345 0
-1344 -1346 0
-1345 -1346 0
1344 1345 1346 0
-25 -1347 0
-194 -1347 0
25 194 1347 0
25 -1348 0
194 -1348 0
-25 -194 1348 0
-1347 -1349 0
-1348 -1349 0
1347 1348 1349 0
-11 -1350 0
-195 -1350 0
11 195 1350 0
11 -1351 0
195 -1351 0
-11 -195 1351 0
-1350 -1352 0
-1351 -1352 0
1350 1351 1352 0
-27 -1353 0
-196 -1353 0
27 196 1353 0
27 -1354 0
196 -1354 0
-27 -196 1354 0
-1353 -1355 0
-1354 -1355 0
1353 1354 1355 0
-12 -1356 0
-197 -1356 0
12 197 1356 0
12 -1357 0
197 -1357 0
-12 -197 1357 0
-1356 -1358 0
-1357 -1358 0
1356 1357 1358 0
-28 -1359 0
-198 -1359 0
28 198 1359 0
28 -1360 0
198 -1360 0
-28 -198 1360 0
-1359 -1361 0
-1360 -1361 0
1359 1360 1361 0
-13 -1362 0
-199 -1362 0
13 199 1362 0
13 -1363 0
199 -1363 0
-13 -199 1363 0
-1362 -1364 0
-1363 -1364 0
1362 1363 1364 0
-29 -1365 0
-200 -1365 0
29 200 1365 0
29 -1366 0
200 -1366 0
-29 -200 1366 0
-1365 -1367 0
-1366 -1367 0
1365 1366 1367 0
-14 -1368 0
-201 -1368 0
14 201 1368 0
14 -1369 0
201 -1369 0
-14 -201 1369 0
-1368 -1370 0
-1369 -1370 0
1368 1369 1370 0
-30 -1371 0
-202 -1371 0
30 202 1371 0
30 -1372 0
202 -1372 0
-30 -202 1372 0
-1371 -1373 0
-1372 -1373 0
1371 1372 1373 0
-16 -1374 0
-203 -1374 0
16 203 1374 0
16 -1375 0
203 -1375 0
-16 -203 1375 0
-1374 -1376 0
-1375 -1376 0
1374 1375 1376 0
-32 -1377 0
-204 -1377 0
32 204 1377 0
32 -1378 0
204 -1378 0
-32 -204 1378 0
-1377 -1379 0
-1378 -1379 0
1377 1378 1379 0
-2 -1380 0
-206 -1380 0
2 206 1380 0
2 -1381 0
206 -1381 0
-2 -206 1381 0
-1380 -1382 0
-1381 -1382 0
1380 1381 1382 0
-18 -1383 0
-207 -1383 0
18 207 1383 0
18 -1384 0
207 -1384 0
-18 -207 1384 0
-1383 -1385 0
-1384 -1385 0
1383 1384 1385 0
-1223 -1386 0
-1224 -1386 0
1223 1224 1386 0
208 -1387 0
-1386 -1387 0
-208 1386 1387 0
-208 -1388 0
1386 -1388 0
208 -1386 1388 0
-1387 -1389 0
-1388 -1389 0
1387 1388 1389 0
-4 -1390 0
-209 -1390 0
4 209 1390 0
4 -1391 0
209 -1391 0
-4 -209 1391 0
-1390 -1392 0
-1391 -1392 0
1390 1391 1392 0
-20 -1393 0
-210 -1393 0
20 210 1393 0
20 -1394 0
210 -1394 0
-20 -210 1394 0
-1393 -1395 0
-1394 -1395 0
1393 1394 1395 0
-3 -1396 0
-211 -1396 0
3 211 1396 0
3 -1397 0
211 -1397 0
-3 -211 1397 0
-1396 -1398 0
-1397 -1398 0
1396 1397 1398 0
-19 -1399 0
-212 -1399 0
19 212 1399 0
19 -1400 0
212 -1400 0
-19 -212 1400 0
-1399 -1401 0
-1400 -1401 0
1399 1400 1401 0
-1 -1402 0
-213 -1402 0
1 213 1402 0
1 -1403 0
213 -1403 0
-1 -213 1403 0
-1402 -1404 0
-1403 -1404 0
1402 1403 1404 0
-17 -1405 0
-214 -1405 0
17 214 1405 0
17 -1406 0
214 -1406 0
-17 -214 1406 0
-1405 -1407 0
-1406 -1407 0
1405 1406 1407 0
-1246 -1408 0
-1247 -1408 0
1246 1247 1408 0
215 -1409 0
-281 -1409 0
-215 281 1409 0
1408 -1410 0
1409 -1410 0
-1408 -1409 1410 0
-215 -1411 0
281 -1411 0
215 -281 1411 0
-1408 -1412 0
1411 -1412 0
1408 -1411 1412 0
-1410 -1413 0
-1412 -1413 0
1410 1412 1413 0
-1252 -1414 0
-1253 -1414 0
1252 1253 1414 0
217 -1415 0
-284 -1415 0
-217 284 1415 0
1414 -1416 0
1415 -1416 0
-1414 -1415 1416 0
-217 -1417 0
284 -1417 0
217 -284 1417 0
-1414 -1418 0
1417 -1418 0
1414 -1417 1418 0
-1416 -1419 0
-1418 -1419 0
1416 1418 1419 0
-219 -1420 0
286 -1420 0
219 -286 1420 0
-1247 -1421 0
-1420 -1421 0
1247 1420 1421 0
219 -1422 0
-286 -1422 0
-219 286 1422 0
1247 -1423 0
-1422 -1423 0
-1247 1422 1423 0
-1421 -1424 0
-1423 -1424 0
1421 1423 1424 0
-220 -1425 0
-288 -1425 0
220 288 1425 0
220 -1426 0
288 -1426 0
-220 -288 1426 0
-1425 -1427 0
-1426 -1427 0
1425 1426 1427 0
-222 -1428 0
-292 -1428 0
222 292 1428 0
222 -1429 0
292 -1429 0
-222 -292 1429 0
-1428 -1430 0
-1429 -1430 0
1428 1429 1430 0
-223 -1431 0
-247 -1431 0
223 247 1431 0
223 -1432 0
247 -1432 0
-223 -247 1432 0
-1431 -1433 0
-1432 -1433 0
1431 1432 1433 0
-224 -1434 0
-293 -1434 0
224 293 1434 0
224 -1435 0
293 -1435 0
-224 -293 1435 0
-1434 -1436 0
-1435 -1436 0
1434 1435 1436 0
-225 -1437 0
-265 -1437 0
225 265 1437 0
225 -1438 0
265 -1438 0
-225 -265 1438 0
-1437 -1439 0
-1438 -1439 0
1437 1438 1439 0
-226 -1440 0
-297 -1440 0
226 297 1440 0
226 -1441 0
297 -1441 0
-226 -297 1441 0
-1440 -1442 0
-1441 -1442 0
1440 1441 1442 0
227 -1443 0
-268 -1443 0
-227 268 1443 0
-227 -1444 0
268 -1444 0
227 -268 1444 0
-1443 -1445 0
-1444 -1445 0
1443 1444 1445 0
